\ LP format - for model browsing. Use MPS format to capture full model detail.
Maximize
  zed
Subject To
 R0: 3 j[0] + 5 j[1] <= 800
 R1: 5 j[0] + 4 j[1] <= 750
 R2: - 8 j[0] - 10 j[1] + zed = 0
Bounds
End
